This is Ipopt version 3.14.4, running with linear solver MUMPS 5.5.1.

Number of nonzeros in equality constraint Jacobian...:        0
Number of nonzeros in inequality constraint Jacobian.:       24
Number of nonzeros in Lagrangian Hessian.............:        0

Total number of variables............................:       24
                     variables with only lower bounds:        0
                variables with lower and upper bounds:       24
                     variables with only upper bounds:        0
Total number of equality constraints.................:        0
Total number of inequality constraints...............:        1
        inequality constraints with only lower bounds:        0
   inequality constraints with lower and upper bounds:        1
        inequality constraints with only upper bounds:        0

iter    objective    inf_pr   inf_du lg(mu)  ||d||  lg(rg) alpha_du alpha_pr  ls
   0  3.2556009e+02 0.00e+00 1.14e+07   0.0 0.00e+00    -  0.00e+00 0.00e+00   0
   1  2.3522741e+02 0.00e+00 2.69e+02   2.0 3.81e+06    -  2.60e-07 4.06e-09f  7
   2  2.3522490e+02 0.00e+00 2.67e+02  -1.7 2.64e-06    -  1.00e+00 1.00e+00f  1
   3  1.5032331e+02 0.00e+00 2.42e+02  -2.3 2.24e-01    -  1.00e+00 1.00e+00f  1
   4  1.3384912e+02 0.00e+00 3.32e+03  -3.1 1.77e-01    -  1.00e+00 5.00e-01f  2
   5  1.2756209e+02 0.00e+00 1.12e+03  -3.3 8.47e-01    -  1.00e+00 1.40e-02f  7
   6  1.1634105e+02 0.00e+00 1.69e+02  -4.0 1.60e-02    -  1.00e+00 1.00e+00f  1
   7  1.1033291e+02 0.00e+00 8.01e+02  -5.6 2.15e-02    -  1.00e+00 1.00e+00f  1
   8  1.0524900e+02 0.00e+00 7.56e+02  -7.1 2.93e-02    -  1.00e+00 1.00e+00f  1
   9  1.0178974e+02 0.00e+00 1.05e+03  -8.2 5.70e-02    -  1.00e+00 1.00e+00f  1
iter    objective    inf_pr   inf_du lg(mu)  ||d||  lg(rg) alpha_du alpha_pr  ls
  10  9.9864912e+01 0.00e+00 3.29e+02  -9.3 4.36e-02    -  1.00e+00 1.00e+00f  1
  11  9.6803851e+01 0.00e+00 1.97e+02 -10.8 1.43e-02    -  1.00e+00 1.00e+00f  1
  12  9.3215530e+01 0.00e+00 1.23e+02 -10.5 1.88e+00    -  1.00e+00 2.42e-02f  5
  13  8.7399946e+01 0.00e+00 2.74e+02 -11.0 1.73e-01    -  1.00e+00 5.00e-01f  2
  14  8.5207754e+01 0.00e+00 8.70e+02  -9.5 4.19e+01    -  1.00e+00 1.94e-03f  4
  15  8.4060157e+01 0.00e+00 6.58e+02  -9.5 2.00e+00    -  1.00e+00 1.27e-02f  6
  16  8.3802664e+01 0.00e+00 4.99e+02 -10.2 1.68e-01    -  1.00e+00 1.00e+00f  1
  17  8.1582101e+01 0.00e+00 4.05e+02  -8.1 1.37e+03    -  1.39e-03 8.91e-06f  6
  18  8.0950894e+01 0.00e+00 3.91e+02  -9.5 2.00e+01    -  1.00e+00 3.49e-04f  7
  19  7.9082248e+01 0.00e+00 4.53e+03  -9.0 6.30e-01    -  1.00e+00 7.81e-03f  8
iter    objective    inf_pr   inf_du lg(mu)  ||d||  lg(rg) alpha_du alpha_pr  ls
  20  7.1161715e+01 0.00e+00 1.18e+03  -6.5 3.16e+02    -  5.42e-03 8.90e-04f  3
  21  6.8274300e+01 0.00e+00 2.21e+03  -8.2 1.61e+00    -  1.00e+00 2.37e-01f  2
  22  6.4748199e+01 0.00e+00 3.34e+02  -6.2 1.96e+02    -  2.63e-02 5.70e-04f  2
  23  6.1993964e+01 0.00e+00 1.82e+02  -7.1 1.40e+00    -  1.00e+00 4.37e-02f  4
  24  6.0250027e+01 0.00e+00 4.58e+02  -5.1 1.30e+02    -  3.50e-03 3.76e-04f  5
  25  5.6529411e+01 0.00e+00 5.39e+02  -5.3 7.36e+01    -  1.00e+00 1.60e-03f  1
  26  5.6420502e+01 0.00e+00 5.45e+02  -5.3 1.43e+00    -  1.00e+00 7.32e-04f  1
  27  5.0755023e+01 0.00e+00 3.37e+02  -4.9 8.84e-01    -  1.00e+00 4.30e-02f  2
  28  4.9876825e+01 0.00e+00 2.61e+03  -4.5 2.56e+00    -  1.00e+00 7.55e-04f  9
  29  4.6826207e+01 0.00e+00 3.93e+02  -3.7 1.20e+01    -  1.00e+00 1.81e-02f  2
iter    objective    inf_pr   inf_du lg(mu)  ||d||  lg(rg) alpha_du alpha_pr  ls
  30  4.6183669e+01 0.00e+00 4.05e+02  -1.5 3.92e+02    -  4.87e-03 3.70e-06f  9
  31  4.5378170e+01 0.00e+00 3.12e+02  -4.6 9.16e-04    -  1.00e+00 6.00e-01f  1
  32  4.4117474e+01 0.00e+00 2.37e+02  -6.3 4.67e-03    -  1.00e+00 2.50e-01f  3
  33  4.2089998e+01 0.00e+00 1.48e+03  -7.8 1.08e-02    -  1.00e+00 1.25e-01f  4
  34  3.8591962e+01 0.00e+00 1.26e+03  -5.2 2.69e-02    -  5.63e-01 1.00e+00f  1
  35  3.8413182e+01 0.00e+00 1.24e+03  -7.1 5.83e-03    -  1.00e+00 1.41e-02f  1
  36  3.1487459e+01 0.00e+00 2.74e+02  -5.1 5.50e-03    -  7.20e-01 1.00e+00f  1
  37  3.1312419e+01 0.00e+00 2.08e+02  -6.9 2.11e-03    -  1.00e+00 2.22e-01f  1
  38  3.1235675e+01 0.00e+00 1.90e+02  -8.6 3.41e-03    -  1.00e+00 1.16e-01f  1
  39  3.1062643e+01 0.00e+00 6.05e+01  -6.6 1.39e-02    -  2.72e-01 1.25e-01f  4
iter    objective    inf_pr   inf_du lg(mu)  ||d||  lg(rg) alpha_du alpha_pr  ls
  40  3.1053168e+01 0.00e+00 6.08e+01  -9.0 1.62e-03    -  1.00e+00 5.08e-02f  1
  41  3.0865586e+01 0.00e+00 6.59e+01 -10.8 6.74e-03    -  1.00e+00 3.08e-01f  1
  42  3.0271217e+01 0.00e+00 1.70e+02 -11.0 2.48e-02    -  1.00e+00 1.00e+00f  1
  43  2.9500633e+01 0.00e+00 1.01e+02 -11.0 8.11e-02    -  1.00e+00 4.24e-01f  2
  44  2.5321394e+01 0.00e+00 6.30e+01 -11.0 4.78e-02    -  1.00e+00 1.00e+00f  1
  45  2.0173810e+01 0.00e+00 2.27e+02 -11.0 2.89e-01    -  1.00e+00 9.02e-01f  1
  46  2.0065428e+01 0.00e+00 2.67e+02  -9.0 2.69e+01    -  2.65e-01 3.29e-04f  1
  47  1.8816997e+01 0.00e+00 9.16e+02  -8.8 4.74e-02    -  1.00e+00 1.00e+00f  1
  48  1.7412441e+01 0.00e+00 6.72e+02  -6.7 6.89e-02    -  5.07e-01 2.85e-01f  1
  49  1.7404129e+01 0.00e+00 6.72e+02  -5.0 5.20e+00    -  4.39e-04 4.35e-05f  1
iter    objective    inf_pr   inf_du lg(mu)  ||d||  lg(rg) alpha_du alpha_pr  ls
  50  1.6746812e+01 0.00e+00 5.55e+02  -5.0 4.70e-01    -  7.99e-06 6.25e-02f  5
  51  1.6090441e+01 0.00e+00 3.68e+02  -7.4 3.63e-01    -  1.00e+00 5.66e-02f  1
  52  1.6078845e+01 0.00e+00 3.67e+02  -8.3 3.02e-01    -  1.00e+00 6.63e-04f  1
  53  1.5706092e+01 0.00e+00 2.60e+02  -6.3 3.01e+01    -  1.00e+00 4.05e-04f  1
  54  1.4800983e+01 0.00e+00 5.88e+01  -7.2 2.64e-02    -  1.00e+00 6.67e-01f  1
  55  1.4164162e+01 0.00e+00 1.84e+01  -8.1 3.24e-02    -  1.00e+00 8.71e-01f  1
  56  1.3457701e+01 0.00e+00 9.32e+02  -5.6 2.59e-01    -  6.50e-01 1.00e+00f  1
  57  1.3334467e+01 0.00e+00 8.54e+02  -4.6 9.52e+00    -  1.00e+00 3.57e-03f  3
  58  1.2121595e+01 0.00e+00 7.40e+02  -3.8 8.18e+00    -  1.00e+00 1.12e-02f  2
  59  1.1927208e+01 0.00e+00 6.04e+02  -1.6 1.44e+01    -  3.38e-01 1.26e-03f  4
iter    objective    inf_pr   inf_du lg(mu)  ||d||  lg(rg) alpha_du alpha_pr  ls
  60  1.1658087e+01 0.00e+00 5.77e+02  -8.0 1.09e+00    -  4.24e-01 9.92e-03f  1
  61  1.5797549e+01 0.00e+00 4.66e+02  -0.4 2.69e+01    -  7.05e-02 1.60e-02f  3
  62  1.5062984e+01 0.00e+00 2.90e+02  -0.3 9.51e+00    -  1.76e-01 9.23e-03f  5
  63  1.4849830e+01 0.00e+00 6.28e+02  -0.3 1.36e-01    -  4.10e-01 5.00e-01f  2
  64  1.3137649e+01 0.00e+00 1.07e+02  -0.3 1.04e-01    -  1.00e+00 1.00e+00f  1
  65  1.3010546e+01 0.00e+00 3.08e+02  -0.3 3.71e-01    -  6.25e-01 1.25e-01f  4
  66  1.2398515e+01 0.00e+00 6.69e+01  -0.3 2.57e-01    -  1.00e+00 1.83e-01f  2
  67  1.0969756e+01 0.00e+00 2.82e+02  -0.3 1.65e-01    -  1.00e+00 5.00e-01f  2
  68  9.1858902e+00 0.00e+00 1.15e+02  -1.3 1.42e-01    -  1.00e+00 8.08e-01f  1
  69  1.0278702e+01 0.00e+00 3.13e+02  -0.2 3.70e-01    -  1.00e+00 1.25e-01f  4
iter    objective    inf_pr   inf_du lg(mu)  ||d||  lg(rg) alpha_du alpha_pr  ls
  70  1.2190418e+01 0.00e+00 6.03e+02  -0.3 2.83e-01    -  5.33e-01 4.95e-01f  2
  71  1.1772492e+01 0.00e+00 7.04e+02  -0.3 6.07e-01    -  6.00e-01 1.18e-01f  3
  72  1.0910077e+01 0.00e+00 3.86e+02  -0.3 1.60e-01    -  8.25e-01 3.91e-01f  2
  73  1.0103489e+01 0.00e+00 1.86e+02  -0.3 3.18e-01    -  1.00e+00 1.35e-01f  3
  74  9.7420054e+00 0.00e+00 1.75e+02  -0.3 2.07e-01    -  1.00e+00 1.59e-01f  3
  75  9.6271645e+00 0.00e+00 1.13e+01  -0.3 8.77e-01    -  4.44e-01 1.58e-02f  6
  76  9.6808003e+00 0.00e+00 1.53e+01  -0.3 1.06e-01    -  1.00e+00 1.25e-01f  4
  77  1.0086131e+01 0.00e+00 3.06e+02  -0.3 2.37e-01    -  1.00e+00 5.00e-01f  2
  78  8.9017988e+00 0.00e+00 1.77e+02  -0.3 2.54e-01    -  1.00e+00 5.00e-01f  2
  79  9.3912460e+00 0.00e+00 4.07e+02   0.0 5.33e-01    -  1.00e+00 1.16e-01f  4
iter    objective    inf_pr   inf_du lg(mu)  ||d||  lg(rg) alpha_du alpha_pr  ls
  80  9.2739558e+00 0.00e+00 1.82e+02  -0.1 2.25e-01    -  1.00e+00 1.25e-01f  4
  81  1.0776031e+01 0.00e+00 7.19e+01  -0.1 1.45e-01    -  1.00e+00 1.00e+00f  1
  82  1.0332169e+01 0.00e+00 3.74e+02  -0.1 3.67e-01    -  1.00e+00 1.25e-01f  4
  83  9.5841187e+00 0.00e+00 3.44e+02  -0.1 6.60e-01    -  1.00e+00 1.73e-01f  3
  84  8.6296258e+00 0.00e+00 5.29e+01  -0.1 2.82e-01    -  1.00e+00 4.76e-01f  2
  85  8.8396797e+00 0.00e+00 5.11e+02   0.2 7.49e-01    -  1.00e+00 6.25e-02f  5
  86  8.7170926e+00 0.00e+00 1.44e+02   0.0 2.47e-02    -  1.00e+00 1.00e+00f  1
  87  8.6563731e+00 0.00e+00 6.90e+01   0.0 1.35e-01    -  1.00e+00 2.50e-01f  3
  88  8.1031758e+00 0.00e+00 9.17e+01   0.0 3.96e-02    -  1.00e+00 1.00e+00f  1
  89  7.6838971e+00 0.00e+00 2.57e+02  -0.0 4.72e-01    -  9.98e-01 1.25e-01f  4
iter    objective    inf_pr   inf_du lg(mu)  ||d||  lg(rg) alpha_du alpha_pr  ls
  90  7.3099070e+00 0.00e+00 6.48e+02  -0.9 2.40e-01    -  1.00e+00 4.90e-01f  2
  91  6.2909673e+00 0.00e+00 2.66e+02  -1.5 5.77e-01    -  1.00e+00 2.58e-01f  2
  92  5.8056519e+00 0.00e+00 2.76e+02  -0.7 1.49e-01    -  1.00e+00 1.14e-01f  4
  93  5.0367350e+00 0.00e+00 1.58e+02  -1.0 2.91e-01    -  1.00e+00 1.82e-01f  3
  94  5.0455036e+00 0.00e+00 2.03e+02  -0.4 1.42e+00    -  2.44e-01 5.47e-02f  3
  95  4.8388320e+00 0.00e+00 3.04e+01  -0.8 8.38e-02    -  1.00e+00 2.50e-01f  3
  96  5.9053698e+00 0.00e+00 3.98e+02  -0.0 5.83e-01    -  1.00e+00 2.50e-01f  3
  97  5.8096266e+00 0.00e+00 1.54e+02  -0.2 4.24e-01    -  6.40e-01 1.25e-01f  4
  98  5.3534847e+00 0.00e+00 1.99e+02  -0.2 2.56e-01    -  1.00e+00 2.50e-01f  3
  99  6.9501241e+00 0.00e+00 2.23e+02  -0.2 4.03e-01    -  6.75e-01 5.00e-01f  2
iter    objective    inf_pr   inf_du lg(mu)  ||d||  lg(rg) alpha_du alpha_pr  ls
 100  5.8659878e+00 0.00e+00 1.15e+02  -0.2 1.08e-01    -  1.00e+00 5.00e-01f  2
 101  5.2271230e+00 0.00e+00 2.57e+01  -0.2 3.13e-01    -  1.00e+00 1.25e-01f  4
 102  5.3833968e+00 0.00e+00 5.89e+01  -0.2 1.87e-01    -  1.00e+00 2.50e-01f  3
 103  5.4747082e+00 0.00e+00 6.08e+00  -0.2 2.19e-01    -  1.00e+00 6.25e-02f  5
 104  5.3081349e+00 0.00e+00 2.23e+02  -0.9 2.38e-01    -  9.40e-01 1.25e-01f  4
 105  4.9628866e+00 0.00e+00 2.48e+01  -0.9 3.24e-01    -  1.00e+00 9.15e-02f  4
 106  4.5761427e+00 0.00e+00 5.69e+01  -0.9 3.27e-01    -  8.54e-01 2.50e-01f  3
 107  4.4121220e+00 0.00e+00 3.30e+01  -1.5 3.05e-01    -  1.00e+00 9.38e-02f  4
 108  4.2041202e+00 0.00e+00 6.34e+01  -2.2 5.98e-01    -  1.00e+00 4.73e-02f  4
 109  3.9744424e+00 0.00e+00 5.68e+01  -0.8 4.14e-01    -  1.00e+00 6.08e-02f  4
iter    objective    inf_pr   inf_du lg(mu)  ||d||  lg(rg) alpha_du alpha_pr  ls
 110  5.9419863e+00 0.00e+00 1.08e+02  -0.2 3.97e-01    -  6.93e-01 5.00e-01f  2
 111  5.8364291e+00 0.00e+00 5.54e+01  -0.4 5.95e-01    -  1.00e+00 2.20e-02f  6
 112  4.4382316e+00 0.00e+00 8.23e+01  -0.4 8.26e-02    -  1.00e+00 1.00e+00f  1
 113  4.3749242e+00 0.00e+00 2.76e+01  -0.4 2.94e-01    -  1.00e+00 3.12e-02f  6
 114  4.3140222e+00 0.00e+00 5.44e+01  -0.4 4.95e-01    -  1.00e+00 2.05e-02f  6
 115  4.2707487e+00 0.00e+00 6.60e+01  -0.4 1.56e-01    -  1.00e+00 6.25e-02f  5
 116  4.2451052e+00 0.00e+00 1.37e+01  -0.4 2.25e-01    -  1.00e+00 6.25e-02f  5
 117  3.8406617e+00 0.00e+00 6.78e+00  -0.4 9.19e-02    -  1.00e+00 5.00e-01f  2
 118  3.8212724e+00 0.00e+00 5.69e+01  -0.6 2.09e-01    -  9.85e-01 3.12e-02f  6
 119  3.7624631e+00 0.00e+00 1.13e+02  -1.5 2.72e-01    -  1.00e+00 2.49e-01f  3
iter    objective    inf_pr   inf_du lg(mu)  ||d||  lg(rg) alpha_du alpha_pr  ls
 120  3.6666748e+00 0.00e+00 7.48e+01  -0.8 3.38e-01    -  9.98e-01 8.47e-02f  4
 121  3.6385131e+00 0.00e+00 1.29e+02  -0.4 3.61e-01    -  1.00e+00 5.33e-02f  5
 122  1.3198917e+01 0.00e+00 5.22e+02   0.5 2.16e+00    -  3.26e-01 2.03e-01f  3
 123  1.3133044e+01 0.00e+00 9.14e+01  -0.0 4.09e-01    -  9.25e-01 6.25e-02f  5
 124  9.2595325e+00 0.00e+00 3.97e+02  -0.0 1.39e+00    -  3.07e-01 1.59e-01f  2
 125  8.1534093e+00 0.00e+00 2.22e+02  -0.0 1.35e+00    -  8.67e-01 3.97e-02f  4
 126  6.8295921e+00 0.00e+00 5.06e+01  -0.0 5.25e-01    -  5.29e-01 1.25e-01f  4
 127  6.5608586e+00 0.00e+00 5.72e+01  -0.0 8.78e-01    -  8.08e-01 3.12e-02f  6
 128  6.1602421e+00 0.00e+00 1.32e+02  -0.0 7.30e-01    -  1.00e+00 5.24e-02f  5
 129  6.0375160e+00 0.00e+00 1.28e+02  -0.0 1.31e-01    -  1.00e+00 2.50e-01f  3
iter    objective    inf_pr   inf_du lg(mu)  ||d||  lg(rg) alpha_du alpha_pr  ls
 130  5.5290992e+00 0.00e+00 2.44e+02  -0.0 8.00e-01    -  1.00e+00 5.82e-02f  4
 131  6.0820425e+00 0.00e+00 6.34e+01  -0.0 6.65e-02    -  1.00e+00 1.00e+00f  1
 132  6.1144988e+00 0.00e+00 6.05e+01  -0.0 1.06e-01    -  1.00e+00 1.25e-01f  4
 133  6.0837099e+00 0.00e+00 1.32e+02  -0.0 1.98e-01    -  1.00e+00 6.25e-02f  5
 134  6.1382321e+00 0.00e+00 1.29e+02  -0.0 4.19e-02    -  1.00e+00 1.25e-01f  4
 135  6.1953567e+00 0.00e+00 1.26e+01  -0.0 2.06e-02    -  1.00e+00 5.00e-01f  2
 136  6.0438908e+00 0.00e+00 3.21e+01  -0.0 2.16e-01    -  1.00e+00 6.25e-02f  5
 137  6.1774855e+00 0.00e+00 1.80e+01  -0.0 4.23e-02    -  1.00e+00 5.00e-01f  2
 138  6.5532913e+00 0.00e+00 1.05e+01  -0.0 4.81e-02    -  1.00e+00 1.00e+00f  1
 139  6.3403120e+00 0.00e+00 4.77e+01  -0.0 2.11e-01    -  1.00e+00 2.50e-01f  3
iter    objective    inf_pr   inf_du lg(mu)  ||d||  lg(rg) alpha_du alpha_pr  ls
 140  6.2665819e+00 0.00e+00 7.74e+01  -0.0 2.12e-01    -  1.00e+00 1.25e-01f  4
 141  6.1759507e+00 0.00e+00 5.35e+01  -0.0 6.98e-02    -  1.00e+00 5.00e-01f  2
 142  6.1577345e+00 0.00e+00 1.05e+02  -0.0 3.71e-01    -  1.00e+00 1.56e-02f  7
 143  6.0644748e+00 0.00e+00 4.32e+01  -0.0 1.70e-01    -  1.00e+00 1.25e-01f  4
 144  5.5856497e+00 0.00e+00 1.32e+01  -0.0 3.61e-01    -  1.00e+00 1.25e-01f  4
 145  5.4211912e+00 0.00e+00 2.34e+01  -0.0 3.00e-01    -  1.00e+00 2.50e-01f  3
 146  5.3058712e+00 0.00e+00 9.46e+01  -0.0 3.91e-01    -  1.00e+00 6.25e-02f  5
 147  5.0478221e+00 0.00e+00 1.61e+01  -0.0 6.44e-01    -  1.00e+00 6.25e-02f  5
 148  4.8543115e+00 0.00e+00 1.31e+02  -0.0 5.22e-01    -  1.00e+00 1.25e-01f  4
 149  1.2361379e+02 0.00e+00 3.51e+03  -0.0 6.30e-01    -  1.00e+00 1.00e+00w  1
iter    objective    inf_pr   inf_du lg(mu)  ||d||  lg(rg) alpha_du alpha_pr  ls
 150  5.9407459e+01 0.00e+00 7.85e+02  -0.0 1.66e-01    -  1.00e+00 1.00e+00w  1
 151  1.5217919e+02 0.00e+00 1.56e+03  -0.0 3.71e+00    -  1.47e-01 6.97e-02w  1
 152  4.8454643e+00 0.00e+00 3.79e+01  -0.0 1.21e+01    -  1.00e+00 3.12e-02f  5
 153  4.7424723e+00 0.00e+00 1.38e+02  -0.0 1.90e-01    -  1.00e+00 3.12e-02f  6
 154  4.7058783e+00 0.00e+00 3.21e+01  -0.0 2.34e+01    -  4.23e-02 1.06e-05f 12
 155  4.7023258e+00 0.00e+00 1.89e+01  -0.0 6.34e-05    -  1.00e+00 1.00e+00f  1
 156  4.6990953e+00 0.00e+00 1.70e+01  -0.0 4.46e-05    -  1.00e+00 1.00e+00f  1
 157  4.6869600e+00 0.00e+00 5.25e+01  -0.0 1.93e-03    -  1.00e+00 2.50e-01f  3
 158  4.6779223e+00 0.00e+00 3.52e+01  -0.0 2.35e-04    -  1.00e+00 1.00e+00f  1
 159  4.6751489e+00 0.00e+00 2.52e+01  -0.0 3.94e-04    -  1.00e+00 5.00e-01f  2
iter    objective    inf_pr   inf_du lg(mu)  ||d||  lg(rg) alpha_du alpha_pr  ls
 160  4.6732671e+00 0.00e+00 1.52e+01  -0.0 1.21e-04    -  1.00e+00 1.00e+00f  1
 161  4.6656429e+00 0.00e+00 1.52e+01  -0.0 1.00e-03    -  1.00e+00 1.00e+00f  1
 162  4.6567516e+00 0.00e+00 5.28e+00  -0.0 2.20e-03    -  1.00e+00 1.00e+00f  1
 163  4.6340263e+00 0.00e+00 9.57e+00  -0.7 1.33e-02    -  1.00e+00 2.50e-01f  3
 164  4.6247054e+00 0.00e+00 9.39e+01  -0.7 5.86e-03    -  1.00e+00 2.50e-01f  3
 165  4.4982463e+00 0.00e+00 5.02e+01  -0.7 3.89e-03    -  1.00e+00 1.00e+00f  1
 166  4.2270282e+00 0.00e+00 1.26e+02  -0.7 1.80e-01    -  1.00e+00 2.48e-01f  3
 167  3.6164206e+00 0.00e+00 1.87e+02  -0.7 5.50e-01    -  1.00e+00 1.33e-01f  2
 168  3.3433842e+00 0.00e+00 3.57e+02  -1.7 1.66e-01    -  1.00e+00 1.00e+00f  1
 169  3.2453449e+00 0.00e+00 3.04e+02  -0.9 1.26e+00    -  1.00e+00 1.06e-02f  5
iter    objective    inf_pr   inf_du lg(mu)  ||d||  lg(rg) alpha_du alpha_pr  ls
 170  3.1931063e+00 0.00e+00 2.12e+02  -1.0 6.36e-02    -  1.00e+00 1.00e+00f  1
 171  3.1126544e+00 0.00e+00 2.75e+01  -0.8 6.25e-01    -  1.00e+00 5.28e-02f  3
 172  2.8346136e+00 0.00e+00 1.43e+02  -0.9 7.49e-01    -  1.00e+00 3.09e-02f  4
 173  2.4790352e+00 0.00e+00 9.34e+01  -0.5 8.15e-02    -  1.00e+00 5.00e-01f  2
 174  6.0609640e+00 0.00e+00 4.64e+02   0.1 1.32e+00    -  8.67e-01 1.25e-01f  4
 175  6.3292201e+00 0.00e+00 1.03e+02  -0.0 3.90e-01    -  5.83e-01 6.25e-02f  5
 176  5.6421037e+00 0.00e+00 5.04e+02  -0.0 1.02e-01    -  1.00e+00 1.00e+00f  1
 177  5.7376736e+00 0.00e+00 3.49e+02  -0.0 7.77e-01    -  2.79e-01 6.75e-02f  4
 178  4.2028309e+00 0.00e+00 4.00e+02  -0.0 5.82e-02    -  1.00e+00 1.00e+00f  1
 179  4.2357295e+00 0.00e+00 1.94e+02  -0.0 5.62e-01    -  3.66e-01 6.25e-02f  5
iter    objective    inf_pr   inf_du lg(mu)  ||d||  lg(rg) alpha_du alpha_pr  ls
 180  4.3277751e+00 0.00e+00 1.76e+02  -0.0 3.70e-01    -  1.00e+00 6.25e-02f  5
 181  4.0833961e+00 0.00e+00 2.42e+02  -0.0 6.07e-02    -  1.00e+00 5.00e-01f  2
 182  4.1936113e+00 0.00e+00 4.26e+01  -0.0 8.72e-02    -  1.00e+00 2.50e-01f  3
 183  4.1524014e+00 0.00e+00 7.73e+01  -0.0 2.29e-01    -  7.81e-01 1.25e-01f  4
 184  4.0635763e+00 0.00e+00 1.96e+02  -0.0 3.60e-01    -  1.00e+00 3.12e-02f  6
 185  4.2251604e+00 0.00e+00 1.53e+01  -0.0 1.54e-02    -  1.00e+00 1.00e+00f  1
 186  4.1553323e+00 0.00e+00 3.31e+01  -0.0 7.04e-02    -  1.00e+00 2.50e-01f  3
 187  4.1319744e+00 0.00e+00 5.11e+01  -0.0 1.64e-01    -  1.00e+00 6.25e-02f  5
 188  4.1708891e+00 0.00e+00 6.38e+01  -0.0 1.22e-01    -  1.00e+00 6.25e-02f  5
 189  4.2964065e+00 0.00e+00 1.87e+01  -0.0 5.28e-02    -  1.00e+00 1.25e-01f  4
iter    objective    inf_pr   inf_du lg(mu)  ||d||  lg(rg) alpha_du alpha_pr  ls
 190  4.2136232e+00 0.00e+00 1.88e+02  -0.0 1.13e-01    -  1.00e+00 5.00e-01f  2
 191  4.6146735e+00 0.00e+00 1.84e+01  -0.0 4.66e-02    -  1.00e+00 1.00e+00f  1
 192  4.7092118e+00 0.00e+00 1.78e+02  -0.0 4.26e-01    -  1.00e+00 1.25e-01f  4
 193  4.5452351e+00 0.00e+00 1.90e+02  -0.0 1.22e-01    -  1.00e+00 2.50e-01f  3
 194  4.3418146e+00 0.00e+00 1.41e+02  -0.0 1.01e-01    -  1.00e+00 5.00e-01f  2
 195  3.9039472e+00 0.00e+00 4.69e+01  -0.0 2.01e-01    -  1.00e+00 1.25e-01f  4
 196  3.9874856e+00 0.00e+00 5.23e+01  -0.0 7.96e-02    -  1.00e+00 2.50e-01f  3
 197  3.9734264e+00 0.00e+00 5.05e+01  -0.0 2.54e-01    -  1.00e+00 2.50e-01f  3
 198  3.8531432e+00 0.00e+00 1.59e+01  -0.0 1.68e-01    -  1.00e+00 1.25e-01f  4
 199  3.8415298e+00 0.00e+00 3.64e+01  -0.0 1.40e-01    -  1.00e+00 6.25e-02f  5
iter    objective    inf_pr   inf_du lg(mu)  ||d||  lg(rg) alpha_du alpha_pr  ls
 200  3.7952054e+00 0.00e+00 9.84e+00  -0.0 1.01e-01    -  1.00e+00 1.25e-01f  4
 201  3.7691369e+00 0.00e+00 2.96e+01  -0.0 2.85e-01    -  1.00e+00 6.25e-02f  5
 202  5.6252145e+00 0.00e+00 3.55e+02  -0.0 1.18e-01    -  1.00e+00 1.00e+00w  1
 203  3.4311735e+00 0.00e+00 6.57e+01  -0.0 5.05e-02    -  1.00e+00 1.00e+00w  1
 204  6.0574519e+00 0.00e+00 3.59e+02  -0.0 1.49e-01    -  1.00e+00 1.00e+00w  1
 205  3.7388919e+00 0.00e+00 1.30e+01  -0.0 2.67e-01    -  1.00e+00 6.25e-02f  4
 206  3.6946012e+00 0.00e+00 2.16e+01  -0.0 1.69e-01    -  1.00e+00 6.25e-02f  5
 207  3.7193318e+00 0.00e+00 3.33e+01  -0.0 3.69e-02    -  1.00e+00 6.25e-02f  5
 208  3.6072653e+00 0.00e+00 4.90e+01  -0.0 1.12e-01    -  1.00e+00 2.50e-01f  3
 209  3.7261623e+00 0.00e+00 2.01e+01  -0.0 6.21e-02    -  1.00e+00 5.00e-01f  2
iter    objective    inf_pr   inf_du lg(mu)  ||d||  lg(rg) alpha_du alpha_pr  ls
 210  3.7394159e+00 0.00e+00 8.42e+00  -0.0 2.70e-02    -  1.00e+00 6.25e-02f  5
 211  3.4878286e+00 0.00e+00 1.15e+02  -0.7 8.52e-02    -  1.00e+00 1.00e+00f  1
 212  3.4672777e+00 0.00e+00 8.54e+01  -0.7 5.67e-01    -  9.03e-01 1.15e-02f  6
 213  3.4085115e+00 0.00e+00 1.88e+02  -0.7 1.43e-01    -  1.00e+00 1.25e-01f  4
 214  3.3662100e+00 0.00e+00 2.20e+01  -0.7 3.52e-01    -  1.00e+00 5.10e-02f  5
 215  3.2379326e+00 0.00e+00 4.82e+01  -0.7 1.95e-01    -  1.00e+00 1.25e-01f  4
 216  3.2063078e+00 0.00e+00 5.44e+01  -0.7 3.79e-01    -  1.00e+00 6.25e-02f  5
 217  3.1343726e+00 0.00e+00 8.66e+01  -0.7 1.41e+00    -  4.93e-01 8.44e-03f  5
 218  2.7283633e+00 0.00e+00 7.90e+01  -0.7 8.16e-02    -  1.00e+00 5.00e-01f  2
 219  2.4957237e+00 0.00e+00 6.19e+01  -0.7 5.05e-01    -  5.11e-01 9.57e-02f  4
iter    objective    inf_pr   inf_du lg(mu)  ||d||  lg(rg) alpha_du alpha_pr  ls
 220  2.3650411e+00 0.00e+00 3.05e+02  -0.7 1.26e+00    -  5.21e-01 4.19e-02f  4
 221  2.2693253e+00 0.00e+00 3.20e+01  -0.8 9.53e-01    -  1.00e+00 2.87e-02f  5
 222  1.7617756e+00 0.00e+00 1.03e+02  -1.8 1.54e-01    -  1.00e+00 6.92e-01f  1
 223  4.6116783e+00 0.00e+00 1.30e+02  -0.3 4.46e-01    -  9.79e-01 5.00e-01f  2
 224  4.2300341e+00 0.00e+00 2.68e+02  -0.4 5.98e-01    -  1.00e+00 1.23e-01f  4
 225  2.7025204e+00 0.00e+00 7.06e+01  -0.4 1.55e-01    -  1.00e+00 5.00e-01f  2
 226  2.6081484e+00 0.00e+00 9.56e+01  -0.4 2.96e-01    -  6.30e-01 1.25e-01f  4
 227  2.6372965e+00 0.00e+00 1.62e+02  -0.4 1.46e-01    -  1.00e+00 6.25e-02f  5
 228  1.9432021e+00 0.00e+00 2.69e+01  -0.4 1.23e-01    -  1.00e+00 1.00e+00f  1
 229  2.1875321e+00 0.00e+00 1.31e+02  -0.4 8.19e-02    -  1.00e+00 5.00e-01f  2
iter    objective    inf_pr   inf_du lg(mu)  ||d||  lg(rg) alpha_du alpha_pr  ls
 230  2.3588776e+00 0.00e+00 4.80e+01  -0.4 1.55e-01    -  1.00e+00 5.00e-01f  2
 231  2.3205562e+00 0.00e+00 2.47e+01  -0.4 1.27e-01    -  1.00e+00 6.25e-02f  5
 232  2.3209865e+00 0.00e+00 2.94e+01  -0.4 2.07e-01    -  1.00e+00 6.25e-02f  5
 233  2.3026736e+00 0.00e+00 1.92e+01  -0.4 2.61e-02    -  1.00e+00 2.50e-01f  3
 234  2.1877076e+00 0.00e+00 4.29e+01  -0.4 5.18e-02    -  1.00e+00 5.00e-01f  2
 235  2.0959956e+00 0.00e+00 5.92e+01  -0.4 1.43e-01    -  1.00e+00 1.25e-01f  4
 236  2.1258835e+00 0.00e+00 3.70e+01  -0.4 4.09e-02    -  1.00e+00 1.25e-01f  4
 237  2.1773590e+00 0.00e+00 6.86e+01  -0.4 3.69e-02    -  1.00e+00 5.00e-01f  2
 238  2.3232786e+00 0.00e+00 6.18e+00  -0.4 3.60e-02    -  1.00e+00 5.00e-01f  2
 239  2.0253866e+00 0.00e+00 5.31e+01  -0.4 6.07e-02    -  1.00e+00 1.00e+00w  1
iter    objective    inf_pr   inf_du lg(mu)  ||d||  lg(rg) alpha_du alpha_pr  ls
 240  5.8554967e+00 0.00e+00 1.43e+02  -0.4 1.43e-01    -  1.00e+00 1.00e+00w  1
 241  5.8834993e+00 0.00e+00 1.40e+02  -0.4 1.33e-01    -  1.00e+00 1.00e+00w  1
 242  2.1387421e+00 0.00e+00 2.26e+01  -0.4 1.87e+00    -  1.00e+00 5.00e-01f  1
 243  2.1078511e+00 0.00e+00 6.99e+01  -0.4 7.93e-02    -  1.00e+00 1.25e-01f  4
 244  2.0740825e+00 0.00e+00 3.39e+01  -0.4 1.69e-01    -  1.00e+00 1.25e-01f  4
 245  2.0641099e+00 0.00e+00 6.56e+01  -0.4 1.44e-01    -  1.00e+00 1.25e-01f  4
 246  2.0653317e+00 0.00e+00 5.68e+01  -0.4 6.30e-02    -  1.00e+00 7.81e-03f  8
 247  2.0701055e+00 0.00e+00 4.58e+01  -0.4 3.37e-02    -  1.00e+00 1.25e-01f  4
 248  2.0686815e+00 0.00e+00 2.40e+01  -0.4 2.82e-01    -  1.00e+00 3.12e-02f  6
 249  2.0402173e+00 0.00e+00 1.73e+01  -0.4 4.03e-02    -  1.00e+00 5.00e-01f  2
iter    objective    inf_pr   inf_du lg(mu)  ||d||  lg(rg) alpha_du alpha_pr  ls
 250  2.0504061e+00 0.00e+00 1.17e+01  -0.4 3.10e-02    -  1.00e+00 6.25e-02f  5
 251  2.0591705e+00 0.00e+00 9.46e+00  -0.4 1.08e-01    -  1.00e+00 6.25e-02f  5
 252  2.0521710e+00 0.00e+00 2.56e+01  -0.4 2.14e-02    -  1.00e+00 2.50e-01f  3
 253  2.5291473e+00 0.00e+00 3.69e+02  -0.4 5.81e-02    -  1.00e+00 1.00e+00w  1
 254  2.1471224e+00 0.00e+00 2.96e+01  -0.4 2.69e-02    -  1.00e+00 1.00e+00w  1
 255  1.8260980e+02 0.00e+00 6.17e+03  -0.4 2.49e-01    -  1.00e+00 1.00e+00w  1
 256  2.0651632e+00 0.00e+00 2.51e+01  -0.4 1.57e+01    -  1.00e+00 1.25e-01f  3
 257  2.0880465e+00 0.00e+00 4.98e+00  -0.4 1.45e-02    -  1.00e+00 2.50e-01f  3
 258  2.0877098e+00 0.00e+00 1.55e+01  -0.4 2.14e+00    -  3.40e-01 1.71e-05f 15
 259  2.0858352e+00 0.00e+00 5.78e+00  -0.4 1.19e-04    -  1.00e+00 1.00e+00f  1
iter    objective    inf_pr   inf_du lg(mu)  ||d||  lg(rg) alpha_du alpha_pr  ls
 260  2.0853392e+00 0.00e+00 5.59e-01  -0.4 6.99e-05    -  1.00e+00 1.00e+00f  1
 261  2.0843398e+00 0.00e+00 2.70e+00  -1.1 7.45e-05    -  1.00e+00 1.00e+00f  1
 262  1.9986496e+00 0.00e+00 5.53e+01  -1.1 2.69e-02    -  1.00e+00 1.00e+00f  1
 263  1.9501977e+00 0.00e+00 2.64e+02  -1.1 3.51e-02    -  1.00e+00 5.00e-01f  2
 264  1.8225152e+00 0.00e+00 3.38e+01  -1.1 8.56e-03    -  1.00e+00 5.00e-01f  2
 265  1.7690346e+00 0.00e+00 3.33e+01  -1.1 2.76e-01    -  3.20e-01 3.12e-02f  6
 266  1.6689599e+00 0.00e+00 8.98e+00  -1.1 1.12e-02    -  1.00e+00 1.00e+00f  1
 267  1.6047477e+00 0.00e+00 2.37e+01  -2.2 1.32e-01    -  1.00e+00 2.11e-01f  2
 268  1.4517764e+00 0.00e+00 1.45e+02  -2.7 1.12e-01    -  1.00e+00 8.46e-01f  1
 269  1.4419733e+00 0.00e+00 2.15e+02  -2.9 1.17e+00    -  1.00e+00 7.08e-03f  5
iter    objective    inf_pr   inf_du lg(mu)  ||d||  lg(rg) alpha_du alpha_pr  ls
 270  1.3966017e+00 0.00e+00 2.69e+02  -3.8 1.47e-01    -  1.00e+00 3.91e-02f  5
 271  1.3361756e+00 0.00e+00 4.15e+01  -8.4 1.93e-01    -  5.67e-01 7.77e-02f  4
 272  1.3208311e+00 0.00e+00 4.32e+01  -8.4 4.03e-02    -  7.82e-01 3.03e-02f  1
 273  1.3128273e+00 0.00e+00 1.69e+01  -3.6 6.94e-02    -  1.00e+00 1.25e-01f  4
 274  1.1686299e+00 0.00e+00 4.78e+01  -4.2 4.51e-02    -  1.00e+00 5.00e-01f  2
 275  1.1612041e+00 0.00e+00 6.02e+01  -5.1 1.07e-01    -  1.00e+00 2.05e-01f  3
 276  1.1506193e+00 0.00e+00 8.94e+01  -4.8 5.90e+00    -  1.00e+00 2.85e-03f  3
 277  1.1401218e+00 0.00e+00 1.15e+02  -9.0 3.28e-01    -  7.87e-01 1.14e-02f  5
 278  1.1120309e+00 0.00e+00 7.67e+01  -3.9 8.07e-02    -  1.00e+00 1.99e-01f  3
 279  1.0997996e+00 0.00e+00 6.08e+01  -3.0 4.27e-02    -  9.46e-01 2.50e-01f  3
iter    objective    inf_pr   inf_du lg(mu)  ||d||  lg(rg) alpha_du alpha_pr  ls
 280  1.0989440e+00 0.00e+00 4.77e+01  -3.6 1.29e-01    -  1.00e+00 3.85e-02f  5
 281  1.0933750e+00 0.00e+00 6.63e+00  -4.7 1.05e-01    -  1.00e+00 2.93e-01f  1
 282  1.0878317e+00 0.00e+00 5.52e+01  -9.8 3.13e-01    -  1.19e-01 3.08e-02f  3
 283  1.0796847e+00 0.00e+00 1.00e+02  -2.1 2.59e-01    -  5.06e-01 8.90e-02f  1
 284  1.0735558e+00 0.00e+00 8.40e+01  -3.4 3.18e-02    -  6.98e-01 1.32e-01f  2
 285  1.0806058e+00 0.00e+00 3.63e+01  -2.0 1.04e+00    -  7.66e-01 6.25e-02f  5
 286  1.0356710e+00 0.00e+00 6.20e+01  -2.2 7.26e-01    -  3.55e-01 5.59e-02f  3
 287  1.0232226e+00 0.00e+00 4.24e+01  -8.1 1.62e-01    -  4.57e-01 5.17e-02f  3
 288  1.0100626e+00 0.00e+00 4.82e+01  -8.4 4.29e-01    -  3.14e-01 3.08e-02f  4
 289  1.0096782e+00 0.00e+00 7.83e+01  -1.6 6.39e-01    -  1.00e+00 6.95e-03f  7
iter    objective    inf_pr   inf_du lg(mu)  ||d||  lg(rg) alpha_du alpha_pr  ls
 290  1.0003465e+00 0.00e+00 1.45e+01  -7.6 9.59e-02    -  5.22e-01 1.25e-01f  4
 291  9.9861704e-01 0.00e+00 1.90e+01  -2.4 1.27e-01    -  1.00e+00 2.13e-02f  6
 292  1.3273115e+00 0.00e+00 1.10e+01  -1.1 8.53e-02    -  1.00e+00 1.00e+00f  1
 293  1.3296767e+00 0.00e+00 4.85e+01  -1.2 5.39e-02    -  1.00e+00 5.00e-01f  2
 294  1.3123059e+00 0.00e+00 1.07e+02  -1.2 3.10e-01    -  1.00e+00 1.31e-02f  7
 295  1.3312375e+00 0.00e+00 4.06e+01  -1.2 2.85e-01    -  6.60e-01 1.25e-01f  4
 296  1.2627817e+00 0.00e+00 7.80e+00  -1.2 1.38e-01    -  1.00e+00 1.25e-01f  4
 297  1.2619858e+00 0.00e+00 3.68e+01  -1.2 1.06e-01    -  1.00e+00 6.25e-02f  5
 298  1.2554975e+00 0.00e+00 5.24e+01  -1.2 2.58e-01    -  9.63e-01 6.25e-02f  5
 299  1.2337502e+00 0.00e+00 3.71e+01  -1.2 3.10e-01    -  4.66e-01 2.45e-02f  6
iter    objective    inf_pr   inf_du lg(mu)  ||d||  lg(rg) alpha_du alpha_pr  ls
 300  1.1984295e+00 0.00e+00 8.37e+00  -1.2 1.86e-01    -  9.30e-01 9.27e-02f  4
 301  1.1945824e+00 0.00e+00 2.43e+01  -1.2 2.81e-01    -  7.41e-01 1.56e-02f  7
 302  1.2046959e+00 0.00e+00 2.51e+01  -1.2 1.69e-02    -  1.00e+00 1.00e+00f  1
 303  1.2044605e+00 0.00e+00 3.71e+00  -1.2 1.78e-01    -  1.00e+00 6.25e-02f  5
 304  1.2013049e+00 0.00e+00 1.17e+01  -1.2 1.10e-01    -  1.00e+00 1.03e-02f  7
 305  1.1677901e+00 0.00e+00 7.58e+00  -1.2 2.64e-02    -  1.00e+00 5.00e-01f  2
